CMD:
./solvers/bin/cadical --plain --no-reduce -t 1600 ./data/cnfs//pj2003/pj2003.68.cnf

c --- [ banner ] -------------------------------------------------------------
c 
c CaDiCaL SAT Solver
c Copyright (c) 2016-2024
c A. Biere, M. Fleury, N. Froleyks, K. Fazekas, F. Pollitt, T. Faller
c JKU Linz, University of Freiburg, TU Wien
c 
c Version 2.1.3 5296d3d2a9bf48c154ab2acb5e44625776d821bf
c g++ (Gentoo 12.3.1_p20230526 p2) 12.3.1 20230526 -Wall -Wextra -O3 -DNDEBUG
c Sat Aug 9 07:26:21 PDT 2025 Linux cedar2.int.cedar.computecanada.ca 5.14.0-362.24.2.el9_3.x86_64 x86_64
c 
c --- [ limit ] --------------------------------------------------------------
c 
c setting time limit to 1600 seconds real time (due to '-t 1600')
c 
c --- [ parsing input ] ------------------------------------------------------
c 
c reading DIMACS file from './data/cnfs//pj2003/pj2003.68.cnf'
c opening file to read './data/cnfs//pj2003/pj2003.68.cnf'
c found 'p cnf 2451972 7108313' header
c parsed 7108313 clauses in 1.14 seconds process time
c 
c --- [ options ] ------------------------------------------------------------
c 
c   --compact=false                (different from default 'true')
c   --decompose=false              (different from default 'true')
c   --deduplicate=false            (different from default 'true')
c   --elim=false                   (different from default 'true')
c   --probe=false                  (different from default 'true')
c   --reduce=false                 (different from default 'true')
c   --subsume=false                (different from default 'true')
c   --ternary=false                (different from default 'true')
c   --transred=false               (different from default 'true')
c   --vivify=false                 (different from default 'true')
c 
c --- [ solving ] ------------------------------------------------------------
c 
c time measured in process time since initialization
c 
c  seconds    reductions  redundant   irredundant
c          MB     restarts       trail         variables
c            level   conflicts       glue            remaining
c 
c *  1.14 1101  0 0   0    0    0  0% 0 7047994 2327660 95%
c {  1.18 1103  0 0   0    0    0  0% 0 7047994 2327660 95%
c i  1.34 1105 5053 0   4  151  142 13% 2 7047994 2327658 95%
c i  1.34 1105 4852 0   6  157  147 12% 2 7047994 2327328 95%
c i  1.34 1105 4636 0   7  164  150 12% 2 7047994 2326988 95%
c i  1.34 1105 4578 0   7  166  151 12% 2 7047994 2326649 95%
c i  1.34 1105 3486 0  10  216  197 10% 2 7047994 2326604 95%
c i  1.35 1105 3373 0  10  223  202 10% 2 7047994 2325911 95%
c i  1.35 1105 3312 0  10  227  205 10% 2 7047994 2325532 95%
c i  1.35 1105 3182 0  10  236  212 10% 2 7047994 2325530 95%
c i  1.35 1105 3114 0  10  241  216 10% 2 7047994 2325175 95%
c i  1.35 1105 2824 0  10  265  237  9% 2 7047994 2324724 95%
c }  1.35 1105 2813 0  10  267  237  9% 2 7047994 2324713 95%
c 0  1.35 1105 2813 0  10  267  237  9% 2 7047994 2324713 95%
c 
c --- [ result ] -------------------------------------------------------------
c 
s UNSATISFIABLE
c 
c --- [ run-time profiling ] -------------------------------------------------
c 
c process time taken by individual solving procedures
c (percentage relative to process time for solving)
c 
c         1.14  542.43% parse
c         0.21   99.95% search
c         0.17   79.06% unstable
c         0.04   20.88% lucky
c         0.00    0.00% simplify
c   =================================
c         0.21   15.56% solve
c 
c last line shows process time for solving
c (percentage relative to total process time)
c 
c --- [ statistics ] ---------------------------------------------------------
c 
c chronological:               144        53.93 %  of conflicts
c conflicts:                   267      1272.97    per second
c decisions:                 12185     58094.08    per second
c fixed:                    127208         5.19 %  of all variables
c learned:                     257        96.25 %  per conflict
c learned_lits:               1665       100.00 %  learned literals
c minimized:                     0         0.00 %  learned literals
c shrunken:                    623        37.42 %  learned literals
c minishrunken:                 63         3.78 %  learned literals
c otfs:                          7         2.62 %  of conflict
c propagations:            1187940         5.66 M  per second
c restarts:                     10        26.70    interval
c subsumed:                      9         0.00 %  of all clauses
c strengthened:                  7         0.00 %  of all clauses
c 
c seconds are measured in process time for solving
c 
c --- [ resources ] ----------------------------------------------------------
c 
c total process time since initialization:         1.35    seconds
c total real time since initialization:            1.37    seconds
c maximum resident set size of process:         1103.46    MB
c 
c --- [ shutting down ] ------------------------------------------------------
c 
c exit 20
